23 23
42 25
49 36
35 19
5 37
28 42
8 53.5
40 61.5
32 45.5
39 27.5
5 59.5
27 53.5
10 50.5
14 67
29 43
7 73
14 39
40 60
31 57
23 65
9 63.5
45 59.5
46 45.5
39 60.5
48 42.5
32 73.5
30 62.5
32 95
40 86
22 68
25 88
48 93
7 53
11 59
38 63.5
37 99.5
10 92.5
7 99.5
16 99.5
24 95.5
20 67.5
5 103
36 120
8 102
10 78
24 117
15 97
12 89
19 129.5
9 106.5
